NAME : sim17.57006.tour
COMMENT : Length = 57006
COMMENT : Found by LKH [Keld Helsgaun] Fri Sep 14 08:57:37 2018
TYPE : TOUR
DIMENSION : 17
TOUR_SECTION
1
4
13
5
3
7
10
11
12
2
15
8
9
16
6
14
17
-1
EOF
